c User generated cnf file
p cnf 7 18
-3 3 4 0 
2 3 -4 0 
-1 3 6 0 
6 -1 5 0 
5 7 -7 0 
7 4 -4 0 
1 -6 4 0 
7 -3 5 0 
-3 6 2 0 
-2 1 1 0 
7 -1 1 0 
1 4 -3 0 
1 -3 3 0 
-5 2 4 0 
-3 5 5 0 
-5 1 6 0 
5 6 -1 0 
3 -3 6 0 
